p cnf 8 16
w 1 1
w 2 0.880797
w 3 0.880797
w 4 1
w 5 0.880797
w 6 1
w 7 0.880797
w 8 1
2 1 4 0
2 -1 -4 0
-2 1 -4 0
-2 -1 4 0
3 1 6 0
3 -1 -6 0
-3 1 -6 0
-3 -1 6 0
5 4 8 0
5 -4 -8 0
-5 4 -8 0
-5 -4 8 0
7 6 8 0
7 -6 -8 0
-7 6 -8 0
-7 -6 8 0
